solution status: optimal solution found
objective value:                     162561.905897948
d11(0,0)                                            1 	(obj:0)
d11(2,3)                                            1 	(obj:0)
d11(2,5)                                            1 	(obj:0)
d11(3,7)                                            1 	(obj:0)
d11(3,8)                                            1 	(obj:0)
d11(3,9)                                            1 	(obj:0)
d11(3,10)                                           1 	(obj:0)
d11(3,11)                                           1 	(obj:0)
d11(3,12)                                           1 	(obj:0)
d11(3,13)                                           1 	(obj:0)
d11(3,14)                                           1 	(obj:0)
d11(4,15)                                           1 	(obj:0)
d11(4,16)                                           1 	(obj:0)
d11(4,17)                                           1 	(obj:0)
d11(4,18)                                           1 	(obj:0)
d11(4,19)                                           1 	(obj:0)
d11(4,20)                                           1 	(obj:0)
d11(4,21)                                           1 	(obj:0)
d11(4,22)                                           1 	(obj:0)
d11(4,23)                                           1 	(obj:0)
d11(4,24)                                           1 	(obj:0)
d11(4,25)                                           1 	(obj:0)
d11(4,26)                                           1 	(obj:0)
d11(4,27)                                           1 	(obj:0)
d11(4,29)                                           1 	(obj:0)
d12(1,2)                                            1 	(obj:0)
d21(3,7)                                            1 	(obj:0)
d21(4,15)                                           1 	(obj:0)
d21(4,16)                                           1 	(obj:0)
d21(4,17)                                           1 	(obj:0)
d21(4,19)                                           1 	(obj:0)
d21(4,23)                                           1 	(obj:0)
d21(4,24)                                           1 	(obj:0)
d21(4,25)                                           1 	(obj:0)
d21(4,27)                                           1 	(obj:0)
STE(1,1)                                         4347 	(obj:0)
STE(0,0)                                         4725 	(obj:0)
STE(1,2)                             5663.21408587651 	(obj:0)
STE(2,3)                             2310.75010111113 	(obj:0)
STE(2,4)                                         3969 	(obj:0)
STE(2,5)                             3626.96418698763 	(obj:0)
STE(2,6)                             5285.21408587651 	(obj:0)
STE(3,7)                            -807.749898888874 	(obj:0)
STE(3,8)                             850.499999999944 	(obj:0)
STE(3,9)                                        850.5 	(obj:0)
STE(3,10)                            2508.74989888882 	(obj:0)
STE(3,11)                            508.464186987631 	(obj:0)
STE(3,12)                            2166.71408587644 	(obj:0)
STE(3,13)                            2166.71408587651 	(obj:0)
STE(3,14)                            3824.96398476532 	(obj:0)
STE(4,15)                           -2843.99979777769 	(obj:0)
STE(4,16)                           -1185.74989888887 	(obj:0)
STE(4,17)                           -1185.74989888887 	(obj:0)
STE(4,18)                            472.499999999944 	(obj:0)
STE(4,19)                           -1185.74989888882 	(obj:0)
STE(4,20)                                       472.5 	(obj:0)
STE(4,21)                            472.499999999937 	(obj:0)
STE(4,22)                            2130.74989888882 	(obj:0)
STE(4,23)                           -1527.78571190119 	(obj:0)
STE(4,24)                            130.464186987631 	(obj:0)
STE(4,25)                            130.464186987624 	(obj:0)
STE(4,26)                            1788.71408587644 	(obj:0)
STE(4,27)                            130.464186987625 	(obj:0)
STE(4,28)                            1788.71408587651 	(obj:0)
STE(4,29)                            1788.71408587651 	(obj:0)
STE(4,30)                            3446.96398476532 	(obj:0)
y1(3,10)                             974.025091000065 	(obj:0)
y1(3,11)                                      2466.45 	(obj:0)
y1(3,12)                             974.025091000072 	(obj:0)
y1(3,13)                                      2466.45 	(obj:0)
y1(3,14)                             974.025091000065 	(obj:0)
y1(4,15)                             1492.42490899994 	(obj:0)
y1(4,17)                             1492.42490899994 	(obj:0)
y1(4,19)                             1492.42490899994 	(obj:0)
y1(4,21)                             1492.42490899999 	(obj:0)
y1(4,23)                             1492.42490899994 	(obj:0)
y1(4,25)                             1492.42490899994 	(obj:0)
y1(4,27)                             1492.42490899999 	(obj:0)
y1(4,29)                             1492.42490899994 	(obj:0)
WB(1)                                3265.91696791192 	(obj:0)
AVE(1)                               3265.91696791192 	(obj:0)
AVE(2)                               3332.74178563731 	(obj:0)
AVE(3)                               3444.11697932125 	(obj:0)
WB(4)                                3399.56511093778 	(obj:0)
AVE(4)                               3399.56511093778 	(obj:0)
WG(2)                                3332.74178563731 	(obj:10)
WG(3)                                3444.11697932125 	(obj:10)
BG(1)                                2673.40993877551 	(obj:10)
BG(2)                                863.550713342282 	(obj:10)
BG(3)                                1746.07867374001 	(obj:10)
BG(4)                                4196.29249897959 	(obj:10)
y1(2,3)                              1492.42490899999 	(obj:0)
y1(2,5)                              1492.42490899999 	(obj:0)
y1(3,7)                                       2466.45 	(obj:0)
y1(3,8)                              974.025091000065 	(obj:0)
y1(3,9)                                       2466.45 	(obj:0)
y2(1,2)                              1385.48851144895 	(obj:0)
